HFSDDW
15	9	3
0	12	1	28	2	7
0	56	1	40	2	88
0	59	1	10	2	3
0	27	1	74	2	68
0	27	1	61	2	41
0	82	1	68	2	74
0	67	1	39	2	85
0	72	1	95	2	77
0	44	1	75	2	24
0	70	1	2	2	12
0	73	1	87	2	24
0	58	1	46	2	32
0	15	1	83	2	67
0	68	1	28	2	63
0	73	1	22	2	23
LBCmax: 319
RELDUE
-1	311	6	9
-1	202	1	9
-1	185	5	8
-1	395	4	7
-1	160	2	1
-1	268	7	8
-1	268	1	9
-1	345	1	3
-1	152	9	7
-1	317	5	7
-1	221	4	9
-1	197	7	8
-1	190	6	2
-1	136	1	1
-1	303	9	1
DDW
308	314
166	238
157	213
391	399
158	162
247	289
239	297
286	404
131	173
292	342
210	232
169	225
184	196
112	160
270	336
